c b=6,c=19
p cnf 17 200
1 2 3 5 6 -12 0
1 2 3 4 6 -13 0
1 3 6 -16 0
1 2 3 5 -6 12 0
1 2 3 5 -6 13 0
2 4 -6 16 0
1 2 4 5 -11 0
2 3 4 5 -14 0
1 2 3 5 -15 0
1 2 4 -5 6 12 0
1 2 4 6 -14 0
1 2 4 -5 -6 -12 0
2 4 -5 -6 14 0
1 2 4 -5 11 0
1 2 3 4 -5 -13 0
2 4 -5 15 0
1 3 4 -10 0
2 4 -17 0
1 2 3 -4 6 -12 0
1 3 5 6 -13 0
1 2 3 -4 -6 12 0
5 -6 16 0
1 3 -4 5 11 0
1 2 3 -4 5 14 0
5 -17 0
1 3 -4 -5 6 13 0
1 3 -4 6 14 0
1 3 -5 6 15 0
6 -17 0
2 3 -5 -6 -13 0
1 2 -4 -5 -6 -14 0
1 2 3 -4 -6 -15 0
-4 -5 -6 17 0
1 3 -4 -5 -11 0
1 3 -4 -5 -16 0
1 3 -4 10 0
2 3 -9 0
2 4 5 6 -12 0
1 2 -3 4 6 13 0
4 6 -16 0
2 4 5 -6 12 0
2 -3 4 5 -6 -13 0
2 -3 4 -6 14 0
1 2 -3 5 -11 0
4 5 -15 0
1 2 -3 -5 11 0
1 2 -3 4 -5 13 0
2 -3 4 10 0
2 -3 -4 5 6 12 0
2 -4 5 6 14 0
2 -3 -4 6 -15 0
5 6 -16 0
2 -3 -4 5 -6 -12 0
1 2 -3 -4 -6 -14 0
-3 -4 5 -6 15 0
2 -3 -4 5 13 0
1 2 -4 -5 6 -12 0
1 -3 -4 -5 6 -13 0
-3 -4 -5 6 16 0
1 2 -4 -5 -6 12 0
1 2 -3 -4 -6 13 0
-4 -5 -6 -16 0
1 2 -3 -4 -5 -14 0
-3 -4 -5 -15 0
2 -3 -4 -10 0
2 -3 9 0
1 2 -8 0
1 -2 3 5 6 12 0
3 4 6 -14 0
1 -2 3 5 -6 -12 0
-2 3 4 -6 14 0
3 4 -6 16 0
1 3 4 5 -11 0
1 -2 3 5 -13 0
1 -2 3 4 -5 6 -12 0
1 -2 3 -5 6 13 0
1 -2 3 4 -5 -6 12 0
1 -2 3 4 -6 -13 0
1 3 4 -5 11 0
3 4 -5 15 0
1 -2 4 -10 0
3 4 -17 0
1 -2 3 -4 6 12 0
1 3 5 6 -15 0
1 -2 3 -4 -6 -12 0
-2 3 -4 -6 -14 0
-2 -4 5 -6 15 0
-4 -5 -6 -15 0
1 -2 3 -4 -5 13 0
1 -2 -4 10 0
1 -2 3 9 0
1 -2 -3 4 6 12 0
1 -2 -3 5 6 -14 0
1 -2 -3 4 -6 -12 0
1 -2 4 5 -6 14 0
1 -2 -3 4 5 11 0
1 -2 -3 4 5 13 0
-2 -3 4 -5 6 14 0
4 -5 6 15 0
-2 -3 4 -5 -6 -14 0
-2 -3 4 -6 -15 0
-2 -3 -5 -6 17 0
1 -2 -3 4 -5 -11 0
1 -2 -3 -5 -13 0
-2 -3 4 -5 -16 0
-2 -3 -4 5 6 -12 0
1 -2 -3 -4 6 -13 0
-2 -3 -4 5 -6 12 0
-2 -3 5 -6 13 0
1 -3 -4 5 -11 0
-2 -3 -4 5 -14 0
-2 -3 -4 5 15 0
1 -2 -3 -5 6 12 0
-2 -3 -4 6 -14 0
1 -2 -3 -5 -6 -12 0
-2 -3 -4 -5 -6 14 0
-2 -3 -5 -6 -16 0
1 -3 -4 -5 11 0
1 -2 -3 -9 0
1 -2 8 0
1 -7 0
-1 2 4 6 -12 0
2 3 5 6 -13 0
2 3 6 -16 0
-1 2 4 -6 12 0
2 3 4 5 -6 13 0
-1 2 4 5 11 0
-1 2 3 -5 6 13 0
-1 2 4 -5 -11 0
2 3 4 -10 0
-1 2 -4 5 6 12 0
2 3 -4 6 14 0
-1 2 5 6 -15 0
-1 2 -4 5 -6 -12 0
-1 3 -4 -6 -14 0
-1 -4 5 -6 15 0
-1 2 3 -4 5 -11 0
-1 2 3 -4 5 -13 0
-1 2 3 -5 6 -12 0
2 3 -5 6 15 0
-1 2 3 -5 -6 12 0
-1 2 3 -4 -6 -13 0
-1 2 3 -4 -5 11 0
2 3 -4 -5 -16 0
2 3 -4 10 0
-1 3 -9 0
-1 2 -3 5 6 13 0
2 4 5 6 -14 0
-1 2 -3 5 11 0
-1 2 -3 -5 6 -13 0
2 -3 4 -5 -6 13 0
-1 2 -3 -5 -11 0
-1 2 -3 4 -5 14 0
-1 2 -3 -4 6 12 0
-1 2 -3 -4 -6 -12 0
-1 -4 5 -6 -14 0
-1 -3 -4 -5 6 -14 0
-1 2 -3 -5 -6 14 0
-1 2 -3 -4 -5 -13 0
-1 -3 9 0
-1 2 8 0
-1 -2 3 4 6 12 0
-1 -2 3 4 -6 -12 0
-1 -2 3 5 11 0
-2 3 4 5 -13 0
-1 -2 3 -5 -11 0
-1 -2 3 4 -5 13 0
-1 -2 3 4 10 0
-1 -2 -4 6 -12 0
-1 -2 3 -4 5 6 13 0
3 -4 5 6 14 0
-1 -2 3 -4 6 -15 0
-1 -2 -4 -6 12 0
-2 3 5 -6 -13 0
-1 -2 3 -4 -5 6 -13 0
-1 -2 -4 -5 6 16 0
-1 -2 3 -5 -6 13 0
-1 -2 3 -4 -5 -14 0
-1 -2 -4 -5 -15 0
-1 -2 3 -4 -10 0
-1 -2 -3 5 6 -12 0
-1 -2 -3 4 6 -13 0
-1 -2 -3 5 -6 12 0
-1 -2 -3 4 5 -11 0
-1 -2 -3 4 5 14 0
-1 -2 4 -5 6 12 0
-1 -2 -3 4 6 14 0
-1 -2 4 -5 -6 -12 0
-1 -2 -3 4 -5 11 0
-2 -3 4 -5 -13 0
-2 -3 4 -10 0
-1 -2 -3 5 6 -13 0
-1 -2 -4 5 11 0
-1 -2 -3 -4 -5 6 13 0
-2 -3 -5 -6 -13 0
-1 -3 -4 -5 -6 14 0
-1 -2 -4 -5 -11 0
-2 -3 -4 10 0
-1 -2 -8 0
-1 7 0
